(declare-fun Config_as1border2_RouteFilterList_101__1_0_1_0__ip
             ()
             (_ BitVec 32))
(declare-fun Config_as1border2_RouteFilterList_101__1_0_1_0__mask
             ()
             (_ BitVec 32))
(declare-fun Config_as1border2_RouteFilterList_101__1_0_1_0__length () Int)
(declare-fun Config_as1border2_RouteFilterList_101__1_0_1_0__prefix_range_start
             ()
             Int)
(declare-fun Config_as1border2_RouteFilterList_101__1_0_1_0__prefix_range_end
             ()
             Int)
(declare-fun Config_as1border2_RouteFilterList_101__1_0_1_0__action () Bool)
(declare-fun Config_as1border2_RouteFilterList_101__1_0_2_0__ip
             ()
             (_ BitVec 32))
(declare-fun Config_as1border2_RouteFilterList_101__1_0_2_0__mask
             ()
             (_ BitVec 32))
(declare-fun Config_as1border2_RouteFilterList_101__1_0_2_0__length () Int)
(declare-fun Config_as1border2_RouteFilterList_101__1_0_2_0__prefix_range_start
             ()
             Int)
(declare-fun Config_as1border2_RouteFilterList_101__1_0_2_0__prefix_range_end
             ()
             Int)
(declare-fun Config_as1border2_RouteFilterList_101__1_0_2_0__action () Bool)
(declare-fun Config_as1border2_RouteFilterList_102__2_0_0_0__ip
             ()
             (_ BitVec 32))
(declare-fun Config_as1border2_RouteFilterList_102__2_0_0_0__mask
             ()
             (_ BitVec 32))
(declare-fun Config_as1border2_RouteFilterList_102__2_0_0_0__length () Int)
(declare-fun Config_as1border2_RouteFilterList_102__2_0_0_0__prefix_range_start
             ()
             Int)
(declare-fun Config_as1border2_RouteFilterList_102__2_0_0_0__prefix_range_end
             ()
             Int)
(declare-fun Config_as1border2_RouteFilterList_102__2_0_0_0__action () Bool)
(declare-fun Config_as1border2_RouteFilterList_102__2_128_0_0__ip
             ()
             (_ BitVec 32))
(declare-fun Config_as1border2_RouteFilterList_102__2_128_0_0__mask
             ()
             (_ BitVec 32))
(declare-fun Config_as1border2_RouteFilterList_102__2_128_0_0__length () Int)
(declare-fun Config_as1border2_RouteFilterList_102__2_128_0_0__prefix_range_start
             ()
             Int)
(declare-fun Config_as1border2_RouteFilterList_102__2_128_0_0__prefix_range_end
             ()
             Int)
(declare-fun Config_as1border2_RouteFilterList_102__2_128_0_0__action () Bool)
(declare-fun Config_as1border2_RouteFilterList_103__3_0_1_0__ip
             ()
             (_ BitVec 32))
(declare-fun Config_as1border2_RouteFilterList_103__3_0_1_0__mask
             ()
             (_ BitVec 32))
(declare-fun Config_as1border2_RouteFilterList_103__3_0_1_0__length () Int)
(declare-fun Config_as1border2_RouteFilterList_103__3_0_1_0__prefix_range_start
             ()
             Int)
(declare-fun Config_as1border2_RouteFilterList_103__3_0_1_0__prefix_range_end
             ()
             Int)
(declare-fun Config_as1border2_RouteFilterList_103__3_0_1_0__action () Bool)
(declare-fun Config_as1border2_RouteFilterList_as4_prefixes__4_0_0_0__ip
             ()
             (_ BitVec 32))
(declare-fun Config_as1border2_RouteFilterList_as4_prefixes__4_0_0_0__mask
             ()
             (_ BitVec 32))
(declare-fun Config_as1border2_RouteFilterList_as4_prefixes__4_0_0_0__length
             ()
             Int)
(declare-fun Config_as1border2_RouteFilterList_as4_prefixes__4_0_0_0__prefix_range_start
             ()
             Int)
(declare-fun Config_as1border2_RouteFilterList_as4_prefixes__4_0_0_0__prefix_range_end
             ()
             Int)
(declare-fun Config_as1border2_RouteFilterList_as4_prefixes__4_0_0_0__action
             ()
             Bool)
(declare-fun Config_as1border2_RouteFilterList_inbound_route_filter__1_0_0_0__ip
             ()
             (_ BitVec 32))
(declare-fun Config_as1border2_RouteFilterList_inbound_route_filter__1_0_0_0__mask
             ()
             (_ BitVec 32))
(declare-fun Config_as1border2_RouteFilterList_inbound_route_filter__1_0_0_0__length
             ()
             Int)
(declare-fun Config_as1border2_RouteFilterList_inbound_route_filter__1_0_0_0__prefix_range_start
             ()
             Int)
(declare-fun Config_as1border2_RouteFilterList_inbound_route_filter__1_0_0_0__prefix_range_end
             ()
             Int)
(declare-fun Config_as1border2_RouteFilterList_inbound_route_filter__1_0_0_0__action
             ()
             Bool)
(declare-fun Config_as1border2_RouteFilterList_inbound_route_filter__0_0_0_0__ip
             ()
             (_ BitVec 32))
(declare-fun Config_as1border2_RouteFilterList_inbound_route_filter__0_0_0_0__mask
             ()
             (_ BitVec 32))
(declare-fun Config_as1border2_RouteFilterList_inbound_route_filter__0_0_0_0__length
             ()
             Int)
(declare-fun Config_as1border2_RouteFilterList_inbound_route_filter__0_0_0_0__prefix_range_start
             ()
             Int)
(declare-fun Config_as1border2_RouteFilterList_inbound_route_filter__0_0_0_0__prefix_range_end
             ()
             Int)
(declare-fun Config_as1border2_RouteFilterList_inbound_route_filter__0_0_0_0__action
             ()
             Bool)
(declare-fun Config_as1border2_RoutingPolicy_BGP_COMMON_EXPORT_POLICY_default__1_0_1_0__ip
             ()
             (_ BitVec 32))
(declare-fun Config_as1border2_RoutingPolicy_BGP_COMMON_EXPORT_POLICY_default__1_0_1_0__mask
             ()
             (_ BitVec 32))
(declare-fun Config_as1border2_RoutingPolicy_BGP_COMMON_EXPORT_POLICY_default__1_0_1_0__length
             ()
             Int)
(declare-fun Config_as1border2_RoutingPolicy_BGP_COMMON_EXPORT_POLICY_default__1_0_1_0__prefix_range_start
             ()
             Int)
(declare-fun Config_as1border2_RoutingPolicy_BGP_COMMON_EXPORT_POLICY_default__1_0_1_0__prefix_range_end
             ()
             Int)
(declare-fun Config_as1border2_RoutingPolicy_BGP_COMMON_EXPORT_POLICY_default__1_0_2_0__ip
             ()
             (_ BitVec 32))
(declare-fun Config_as1border2_RoutingPolicy_BGP_COMMON_EXPORT_POLICY_default__1_0_2_0__mask
             ()
             (_ BitVec 32))
(declare-fun Config_as1border2_RoutingPolicy_BGP_COMMON_EXPORT_POLICY_default__1_0_2_0__length
             ()
             Int)
(declare-fun Config_as1border2_RoutingPolicy_BGP_COMMON_EXPORT_POLICY_default__1_0_2_0__prefix_range_start
             ()
             Int)
(declare-fun Config_as1border2_RoutingPolicy_BGP_COMMON_EXPORT_POLICY_default__1_0_2_0__prefix_range_end
             ()
             Int)
(declare-fun Config_as1border2_RoutingPolicy_OSPF_EXPORT_POLICY_default__0_0_0_0__ip
             ()
             (_ BitVec 32))
(declare-fun Config_as1border2_RoutingPolicy_OSPF_EXPORT_POLICY_default__0_0_0_0__mask
             ()
             (_ BitVec 32))
(declare-fun Config_as1border2_RoutingPolicy_OSPF_EXPORT_POLICY_default__0_0_0_0__length
             ()
             Int)
(declare-fun Config_as1border2_RoutingPolicy_OSPF_EXPORT_POLICY_default__0_0_0_0__prefix_range_start
             ()
             Int)
(declare-fun Config_as1border2_RoutingPolicy_OSPF_EXPORT_POLICY_default__0_0_0_0__prefix_range_end
             ()
             Int)
(declare-fun Config_as1border1_RouteFilterList_101__1_0_1_0__ip
             ()
             (_ BitVec 32))
(declare-fun Config_as1border1_RouteFilterList_101__1_0_1_0__mask
             ()
             (_ BitVec 32))
(declare-fun Config_as1border1_RouteFilterList_101__1_0_1_0__length () Int)
(declare-fun Config_as1border1_RouteFilterList_101__1_0_1_0__prefix_range_start
             ()
             Int)
(declare-fun Config_as1border1_RouteFilterList_101__1_0_1_0__prefix_range_end
             ()
             Int)
(declare-fun Config_as1border1_RouteFilterList_101__1_0_1_0__action () Bool)
(declare-fun Config_as1border1_RouteFilterList_101__1_0_2_0__ip
             ()
             (_ BitVec 32))
(declare-fun Config_as1border1_RouteFilterList_101__1_0_2_0__mask
             ()
             (_ BitVec 32))
(declare-fun Config_as1border1_RouteFilterList_101__1_0_2_0__length () Int)
(declare-fun Config_as1border1_RouteFilterList_101__1_0_2_0__prefix_range_start
             ()
             Int)
(declare-fun Config_as1border1_RouteFilterList_101__1_0_2_0__prefix_range_end
             ()
             Int)
(declare-fun Config_as1border1_RouteFilterList_101__1_0_2_0__action () Bool)
(declare-fun Config_as1border1_RouteFilterList_102__2_0_0_0__ip
             ()
             (_ BitVec 32))
(declare-fun Config_as1border1_RouteFilterList_102__2_0_0_0__mask
             ()
             (_ BitVec 32))
(declare-fun Config_as1border1_RouteFilterList_102__2_0_0_0__length () Int)
(declare-fun Config_as1border1_RouteFilterList_102__2_0_0_0__prefix_range_start
             ()
             Int)
(declare-fun Config_as1border1_RouteFilterList_102__2_0_0_0__prefix_range_end
             ()
             Int)
(declare-fun Config_as1border1_RouteFilterList_102__2_0_0_0__action () Bool)
(declare-fun Config_as1border1_RouteFilterList_102__2_128_0_0__ip
             ()
             (_ BitVec 32))
(declare-fun Config_as1border1_RouteFilterList_102__2_128_0_0__mask
             ()
             (_ BitVec 32))
(declare-fun Config_as1border1_RouteFilterList_102__2_128_0_0__length () Int)
(declare-fun Config_as1border1_RouteFilterList_102__2_128_0_0__prefix_range_start
             ()
             Int)
(declare-fun Config_as1border1_RouteFilterList_102__2_128_0_0__prefix_range_end
             ()
             Int)
(declare-fun Config_as1border1_RouteFilterList_102__2_128_0_0__action () Bool)
(declare-fun Config_as1border1_RouteFilterList_103__3_0_1_0__ip
             ()
             (_ BitVec 32))
(declare-fun Config_as1border1_RouteFilterList_103__3_0_1_0__mask
             ()
             (_ BitVec 32))
(declare-fun Config_as1border1_RouteFilterList_103__3_0_1_0__length () Int)
(declare-fun Config_as1border1_RouteFilterList_103__3_0_1_0__prefix_range_start
             ()
             Int)
(declare-fun Config_as1border1_RouteFilterList_103__3_0_1_0__prefix_range_end
             ()
             Int)
(declare-fun Config_as1border1_RouteFilterList_103__3_0_1_0__action () Bool)
(declare-fun Config_as1border1_RouteFilterList_103__3_0_2_0__ip
             ()
             (_ BitVec 32))
(declare-fun Config_as1border1_RouteFilterList_103__3_0_2_0__mask
             ()
             (_ BitVec 32))
(declare-fun Config_as1border1_RouteFilterList_103__3_0_2_0__length () Int)
(declare-fun Config_as1border1_RouteFilterList_103__3_0_2_0__prefix_range_start
             ()
             Int)
(declare-fun Config_as1border1_RouteFilterList_103__3_0_2_0__prefix_range_end
             ()
             Int)
(declare-fun Config_as1border1_RouteFilterList_103__3_0_2_0__action () Bool)
(declare-fun Config_as1border1_RouteFilterList_default_list__0_0_0_0__ip
             ()
             (_ BitVec 32))
(declare-fun Config_as1border1_RouteFilterList_default_list__0_0_0_0__mask
             ()
             (_ BitVec 32))
(declare-fun Config_as1border1_RouteFilterList_default_list__0_0_0_0__length
             ()
             Int)
(declare-fun Config_as1border1_RouteFilterList_default_list__0_0_0_0__prefix_range_start
             ()
             Int)
(declare-fun Config_as1border1_RouteFilterList_default_list__0_0_0_0__prefix_range_end
             ()
             Int)
(declare-fun Config_as1border1_RouteFilterList_default_list__0_0_0_0__action
             ()
             Bool)
(declare-fun Config_as1border1_RouteFilterList_inbound_route_filter__1_0_0_0__ip
             ()
             (_ BitVec 32))
(declare-fun Config_as1border1_RouteFilterList_inbound_route_filter__1_0_0_0__mask
             ()
             (_ BitVec 32))
(declare-fun Config_as1border1_RouteFilterList_inbound_route_filter__1_0_0_0__length
             ()
             Int)
(declare-fun Config_as1border1_RouteFilterList_inbound_route_filter__1_0_0_0__prefix_range_start
             ()
             Int)
(declare-fun Config_as1border1_RouteFilterList_inbound_route_filter__1_0_0_0__prefix_range_end
             ()
             Int)
(declare-fun Config_as1border1_RouteFilterList_inbound_route_filter__1_0_0_0__action
             ()
             Bool)
(declare-fun Config_as1border1_RouteFilterList_inbound_route_filter__0_0_0_0__ip
             ()
             (_ BitVec 32))
(declare-fun Config_as1border1_RouteFilterList_inbound_route_filter__0_0_0_0__mask
             ()
             (_ BitVec 32))
(declare-fun Config_as1border1_RouteFilterList_inbound_route_filter__0_0_0_0__length
             ()
             Int)
(declare-fun Config_as1border1_RouteFilterList_inbound_route_filter__0_0_0_0__prefix_range_start
             ()
             Int)
(declare-fun Config_as1border1_RouteFilterList_inbound_route_filter__0_0_0_0__prefix_range_end
             ()
             Int)
(declare-fun Config_as1border1_RouteFilterList_inbound_route_filter__0_0_0_0__action
             ()
             Bool)
(declare-fun Config_as1border1_RoutingPolicy_BGP_COMMON_EXPORT_POLICY_default__1_0_1_0__prefix_range_start
             ()
             Int)
(declare-fun Config_as1border1_RoutingPolicy_BGP_COMMON_EXPORT_POLICY_default__1_0_1_0__prefix_range_end
             ()
             Int)
(declare-fun Config_as1border1_RoutingPolicy_BGP_COMMON_EXPORT_POLICY_default__1_0_2_0__prefix_range_start
             ()
             Int)
(declare-fun Config_as1border1_RoutingPolicy_BGP_COMMON_EXPORT_POLICY_default__1_0_2_0__prefix_range_end
             ()
             Int)
(declare-fun Config_as1border1_RoutingPolicy_OSPF_EXPORT_POLICY_default__0_0_0_0__prefix_range_start
             ()
             Int)
(declare-fun Config_as1border1_RoutingPolicy_OSPF_EXPORT_POLICY_default__0_0_0_0__prefix_range_end
             ()
             Int)
(declare-fun Config_as2border1_RouteFilterList_101__1_0_1_0__ip
             ()
             (_ BitVec 32))
(declare-fun Config_as2border1_RouteFilterList_101__1_0_1_0__mask
             ()
             (_ BitVec 32))
(declare-fun Config_as2border1_RouteFilterList_101__1_0_1_0__length () Int)
(declare-fun Config_as2border1_RouteFilterList_101__1_0_1_0__prefix_range_start
             ()
             Int)
(declare-fun Config_as2border1_RouteFilterList_101__1_0_1_0__prefix_range_end
             ()
             Int)
(declare-fun Config_as2border1_RouteFilterList_101__1_0_1_0__action () Bool)
(declare-fun Config_as2border1_RouteFilterList_101__1_0_2_0__ip
             ()
             (_ BitVec 32))
(declare-fun Config_as2border1_RouteFilterList_101__1_0_2_0__mask
             ()
             (_ BitVec 32))
(declare-fun Config_as2border1_RouteFilterList_101__1_0_2_0__length () Int)
(declare-fun Config_as2border1_RouteFilterList_101__1_0_2_0__prefix_range_start
             ()
             Int)
(declare-fun Config_as2border1_RouteFilterList_101__1_0_2_0__prefix_range_end
             ()
             Int)
(declare-fun Config_as2border1_RouteFilterList_101__1_0_2_0__action () Bool)
(declare-fun Config_as2border1_RouteFilterList_103__3_0_1_0__ip
             ()
             (_ BitVec 32))
(declare-fun Config_as2border1_RouteFilterList_103__3_0_1_0__mask
             ()
             (_ BitVec 32))
(declare-fun Config_as2border1_RouteFilterList_103__3_0_1_0__length () Int)
(declare-fun Config_as2border1_RouteFilterList_103__3_0_1_0__prefix_range_start
             ()
             Int)
(declare-fun Config_as2border1_RouteFilterList_103__3_0_1_0__prefix_range_end
             ()
             Int)
(declare-fun Config_as2border1_RouteFilterList_103__3_0_1_0__action () Bool)
(declare-fun Config_as2border1_RouteFilterList_103__3_0_2_0__ip
             ()
             (_ BitVec 32))
(declare-fun Config_as2border1_RouteFilterList_103__3_0_2_0__mask
             ()
             (_ BitVec 32))
(declare-fun Config_as2border1_RouteFilterList_103__3_0_2_0__length () Int)
(declare-fun Config_as2border1_RouteFilterList_103__3_0_2_0__prefix_range_start
             ()
             Int)
(declare-fun Config_as2border1_RouteFilterList_103__3_0_2_0__prefix_range_end
             ()
             Int)
(declare-fun Config_as2border1_RouteFilterList_103__3_0_2_0__action () Bool)
(declare-fun Config_as2border1_RouteFilterList_inbound_route_filter__2_0_0_0__ip
             ()
             (_ BitVec 32))
(declare-fun Config_as2border1_RouteFilterList_inbound_route_filter__2_0_0_0__mask
             ()
             (_ BitVec 32))
(declare-fun Config_as2border1_RouteFilterList_inbound_route_filter__2_0_0_0__length
             ()
             Int)
(declare-fun Config_as2border1_RouteFilterList_inbound_route_filter__2_0_0_0__prefix_range_start
             ()
             Int)
(declare-fun Config_as2border1_RouteFilterList_inbound_route_filter__2_0_0_0__prefix_range_end
             ()
             Int)
(declare-fun Config_as2border1_RouteFilterList_inbound_route_filter__2_0_0_0__action
             ()
             Bool)
(declare-fun Config_as2border1_RouteFilterList_inbound_route_filter__0_0_0_0__ip
             ()
             (_ BitVec 32))
(declare-fun Config_as2border1_RouteFilterList_inbound_route_filter__0_0_0_0__mask
             ()
             (_ BitVec 32))
(declare-fun Config_as2border1_RouteFilterList_inbound_route_filter__0_0_0_0__length
             ()
             Int)
(declare-fun Config_as2border1_RouteFilterList_inbound_route_filter__0_0_0_0__prefix_range_start
             ()
             Int)
(declare-fun Config_as2border1_RouteFilterList_inbound_route_filter__0_0_0_0__prefix_range_end
             ()
             Int)
(declare-fun Config_as2border1_RouteFilterList_inbound_route_filter__0_0_0_0__action
             ()
             Bool)
(declare-fun Config_as2border1_RouteFilterList_outbound_routes__2_128_0_0__ip
             ()
             (_ BitVec 32))
(declare-fun Config_as2border1_RouteFilterList_outbound_routes__2_128_0_0__mask
             ()
             (_ BitVec 32))
(declare-fun Config_as2border1_RouteFilterList_outbound_routes__2_128_0_0__length
             ()
             Int)
(declare-fun Config_as2border1_RouteFilterList_outbound_routes__2_128_0_0__prefix_range_start
             ()
             Int)
(declare-fun Config_as2border1_RouteFilterList_outbound_routes__2_128_0_0__prefix_range_end
             ()
             Int)
(declare-fun Config_as2border1_RouteFilterList_outbound_routes__2_128_0_0__action
             ()
             Bool)
(declare-fun Config_as2border1_RouteFilterList_MATCH_SUPPRESSED_SUMMARY_ONLY_default__2_128_0_0__ip
             ()
             (_ BitVec 32))
(declare-fun Config_as2border1_RouteFilterList_MATCH_SUPPRESSED_SUMMARY_ONLY_default__2_128_0_0__mask
             ()
             (_ BitVec 32))
(declare-fun Config_as2border1_RouteFilterList_MATCH_SUPPRESSED_SUMMARY_ONLY_default__2_128_0_0__length
             ()
             Int)
(declare-fun Config_as2border1_RouteFilterList_MATCH_SUPPRESSED_SUMMARY_ONLY_default__2_128_0_0__prefix_range_start
             ()
             Int)
(declare-fun Config_as2border1_RouteFilterList_MATCH_SUPPRESSED_SUMMARY_ONLY_default__2_128_0_0__prefix_range_end
             ()
             Int)
(declare-fun Config_as2border1_RouteFilterList_MATCH_SUPPRESSED_SUMMARY_ONLY_default__2_128_0_0__action
             ()
             Bool)
(declare-fun Config_as2border1_RoutingPolicy_AGGREGATE_ROUTE_GEN_default_2_128_0_0_16__2_128_0_0__ip
             ()
             (_ BitVec 32))
(declare-fun Config_as2border1_RoutingPolicy_AGGREGATE_ROUTE_GEN_default_2_128_0_0_16__2_128_0_0__mask
             ()
             (_ BitVec 32))
(declare-fun Config_as2border1_RoutingPolicy_AGGREGATE_ROUTE_GEN_default_2_128_0_0_16__2_128_0_0__length
             ()
             Int)
(declare-fun Config_as2border1_RoutingPolicy_AGGREGATE_ROUTE_GEN_default_2_128_0_0_16__2_128_0_0__prefix_range_start
             ()
             Int)
(declare-fun Config_as2border1_RoutingPolicy_AGGREGATE_ROUTE_GEN_default_2_128_0_0_16__2_128_0_0__prefix_range_end
             ()
             Int)
(declare-fun Config_as2border1_RoutingPolicy_BGP_COMMON_EXPORT_POLICY_default__2_128_0_0__prefix_range_start
             ()
             Int)
(declare-fun Config_as2border1_RoutingPolicy_BGP_COMMON_EXPORT_POLICY_default__2_128_0_0__prefix_range_end
             ()
             Int)
(declare-fun Config_as2border1_RoutingPolicy_OSPF_EXPORT_POLICY_default__0_0_0_0__prefix_range_start
             ()
             Int)
(declare-fun Config_as2border1_RoutingPolicy_OSPF_EXPORT_POLICY_default__0_0_0_0__prefix_range_end
             ()
             Int)
(assert (= Config_as1border2_RouteFilterList_101__1_0_1_0__ip #x01000100))
(assert (= Config_as1border2_RouteFilterList_101__1_0_1_0__mask #xffffff00))
(assert (= Config_as1border2_RouteFilterList_101__1_0_1_0__length 24))
(assert (= Config_as1border2_RouteFilterList_101__1_0_1_0__prefix_range_start 24))
(assert (= Config_as1border2_RouteFilterList_101__1_0_1_0__prefix_range_end 24))
(assert (= Config_as1border2_RouteFilterList_101__1_0_1_0__action true))
(assert (= Config_as1border2_RouteFilterList_101__1_0_2_0__ip #x01000200))
(assert (= Config_as1border2_RouteFilterList_101__1_0_2_0__mask #xffffff00))
(assert (= Config_as1border2_RouteFilterList_101__1_0_2_0__length 24))
(assert (= Config_as1border2_RouteFilterList_101__1_0_2_0__prefix_range_start 24))
(assert (= Config_as1border2_RouteFilterList_101__1_0_2_0__prefix_range_end 24))
(assert (= Config_as1border2_RouteFilterList_101__1_0_2_0__action true))
(assert (= Config_as1border2_RouteFilterList_102__2_0_0_0__ip #x02000000))
(assert (= Config_as1border2_RouteFilterList_102__2_0_0_0__mask #xff000000))
(assert (= Config_as1border2_RouteFilterList_102__2_0_0_0__length 8))
(assert (= Config_as1border2_RouteFilterList_102__2_0_0_0__prefix_range_start 8))
(assert (= Config_as1border2_RouteFilterList_102__2_0_0_0__prefix_range_end 8))
(assert (= Config_as1border2_RouteFilterList_102__2_0_0_0__action true))
(assert (= Config_as1border2_RouteFilterList_102__2_128_0_0__ip #x02800000))
(assert (= Config_as1border2_RouteFilterList_102__2_128_0_0__mask #xffff0000))
(assert (= Config_as1border2_RouteFilterList_102__2_128_0_0__length 16))
(assert (= Config_as1border2_RouteFilterList_102__2_128_0_0__prefix_range_start 16))
(assert (= Config_as1border2_RouteFilterList_102__2_128_0_0__prefix_range_end 16))
(assert (= Config_as1border2_RouteFilterList_102__2_128_0_0__action true))
(assert (= Config_as1border2_RouteFilterList_103__3_0_1_0__ip #x03000100))
(assert (= Config_as1border2_RouteFilterList_103__3_0_1_0__mask #xffffff00))
(assert (= Config_as1border2_RouteFilterList_103__3_0_1_0__length 24))
(assert (= Config_as1border2_RouteFilterList_103__3_0_1_0__prefix_range_start 24))
(assert (= Config_as1border2_RouteFilterList_103__3_0_1_0__prefix_range_end 24))
(assert (= Config_as1border2_RouteFilterList_103__3_0_1_0__action true))
(assert (= Config_as1border2_RouteFilterList_as4_prefixes__4_0_0_0__ip #x04000000))
(assert (= Config_as1border2_RouteFilterList_as4_prefixes__4_0_0_0__mask #xff000000))
(assert (= Config_as1border2_RouteFilterList_as4_prefixes__4_0_0_0__length 8))
(assert (= Config_as1border2_RouteFilterList_as4_prefixes__4_0_0_0__prefix_range_start
   8))
(assert (= Config_as1border2_RouteFilterList_as4_prefixes__4_0_0_0__prefix_range_end 32))
(assert (= Config_as1border2_RouteFilterList_as4_prefixes__4_0_0_0__action true))
(assert (= Config_as1border2_RouteFilterList_inbound_route_filter__1_0_0_0__ip
   #x01000000))
(assert (= Config_as1border2_RouteFilterList_inbound_route_filter__1_0_0_0__mask
   #xff000000))
(assert (= Config_as1border2_RouteFilterList_inbound_route_filter__1_0_0_0__length 8))
(assert (= Config_as1border2_RouteFilterList_inbound_route_filter__1_0_0_0__prefix_range_start
   8))
(assert (= Config_as1border2_RouteFilterList_inbound_route_filter__1_0_0_0__prefix_range_end
   32))
(assert (= Config_as1border2_RouteFilterList_inbound_route_filter__1_0_0_0__action
   false))
(assert (= Config_as1border2_RouteFilterList_inbound_route_filter__0_0_0_0__ip
   #x00000000))
(assert (= Config_as1border2_RouteFilterList_inbound_route_filter__0_0_0_0__mask
   #x00000000))
(assert (= Config_as1border2_RouteFilterList_inbound_route_filter__0_0_0_0__length 0))
(assert (= Config_as1border2_RouteFilterList_inbound_route_filter__0_0_0_0__prefix_range_start
   0))
(assert (= Config_as1border2_RouteFilterList_inbound_route_filter__0_0_0_0__prefix_range_end
   32))
(assert (= Config_as1border2_RouteFilterList_inbound_route_filter__0_0_0_0__action true))
(assert (= Config_as1border2_RoutingPolicy_BGP_COMMON_EXPORT_POLICY_default__1_0_1_0__ip
   #x01000100))
(assert (= Config_as1border2_RoutingPolicy_BGP_COMMON_EXPORT_POLICY_default__1_0_1_0__mask
   #xffffff00))
(assert (= Config_as1border2_RoutingPolicy_BGP_COMMON_EXPORT_POLICY_default__1_0_1_0__length
   24))
(assert (= Config_as1border2_RoutingPolicy_BGP_COMMON_EXPORT_POLICY_default__1_0_1_0__prefix_range_start
   24))
(assert (= Config_as1border2_RoutingPolicy_BGP_COMMON_EXPORT_POLICY_default__1_0_1_0__prefix_range_end
   24))
(assert (= Config_as1border2_RoutingPolicy_BGP_COMMON_EXPORT_POLICY_default__1_0_2_0__ip
   #x01000200))
(assert (= Config_as1border2_RoutingPolicy_BGP_COMMON_EXPORT_POLICY_default__1_0_2_0__mask
   #xffffff00))
(assert (= Config_as1border2_RoutingPolicy_BGP_COMMON_EXPORT_POLICY_default__1_0_2_0__length
   24))
(assert (= Config_as1border2_RoutingPolicy_BGP_COMMON_EXPORT_POLICY_default__1_0_2_0__prefix_range_start
   24))
(assert (= Config_as1border2_RoutingPolicy_BGP_COMMON_EXPORT_POLICY_default__1_0_2_0__prefix_range_end
   24))
(assert (= Config_as1border2_RoutingPolicy_OSPF_EXPORT_POLICY_default__0_0_0_0__ip
   #x00000000))
(assert (= Config_as1border2_RoutingPolicy_OSPF_EXPORT_POLICY_default__0_0_0_0__mask
   #x00000000))
(assert (= Config_as1border2_RoutingPolicy_OSPF_EXPORT_POLICY_default__0_0_0_0__length
   0))
(assert (= Config_as1border2_RoutingPolicy_OSPF_EXPORT_POLICY_default__0_0_0_0__prefix_range_start
   0))
(assert (= Config_as1border2_RoutingPolicy_OSPF_EXPORT_POLICY_default__0_0_0_0__prefix_range_end
   0))
(assert (= Config_as1border1_RouteFilterList_101__1_0_1_0__ip #x01000100))
(assert (= Config_as1border1_RouteFilterList_101__1_0_1_0__mask #xffffff00))
(assert (= Config_as1border1_RouteFilterList_101__1_0_1_0__length 24))
(assert (= Config_as1border1_RouteFilterList_101__1_0_1_0__prefix_range_start 24))
(assert (= Config_as1border1_RouteFilterList_101__1_0_1_0__prefix_range_end 24))
(assert (= Config_as1border1_RouteFilterList_101__1_0_1_0__action true))
(assert (= Config_as1border1_RouteFilterList_101__1_0_2_0__ip #x01000200))
(assert (= Config_as1border1_RouteFilterList_101__1_0_2_0__mask #xffffff00))
(assert (= Config_as1border1_RouteFilterList_101__1_0_2_0__length 24))
(assert (= Config_as1border1_RouteFilterList_101__1_0_2_0__prefix_range_start 24))
(assert (= Config_as1border1_RouteFilterList_101__1_0_2_0__prefix_range_end 24))
(assert (= Config_as1border1_RouteFilterList_101__1_0_2_0__action true))
(assert (= Config_as1border1_RouteFilterList_102__2_0_0_0__ip #x02000000))
(assert (= Config_as1border1_RouteFilterList_102__2_0_0_0__mask #xff000000))
(assert (= Config_as1border1_RouteFilterList_102__2_0_0_0__length 8))
(assert (= Config_as1border1_RouteFilterList_102__2_0_0_0__prefix_range_start 8))
(assert (= Config_as1border1_RouteFilterList_102__2_0_0_0__prefix_range_end 8))
(assert (= Config_as1border1_RouteFilterList_102__2_0_0_0__action true))
(assert (= Config_as1border1_RouteFilterList_102__2_128_0_0__ip #x02800000))
(assert (= Config_as1border1_RouteFilterList_102__2_128_0_0__mask #xffff0000))
(assert (= Config_as1border1_RouteFilterList_102__2_128_0_0__length 16))
(assert (= Config_as1border1_RouteFilterList_102__2_128_0_0__prefix_range_start 16))
(assert (= Config_as1border1_RouteFilterList_102__2_128_0_0__prefix_range_end 16))
(assert (= Config_as1border1_RouteFilterList_102__2_128_0_0__action true))
(assert (= Config_as1border1_RouteFilterList_103__3_0_1_0__ip #x03000100))
(assert (= Config_as1border1_RouteFilterList_103__3_0_1_0__mask #xffffff00))
(assert (= Config_as1border1_RouteFilterList_103__3_0_1_0__length 24))
(assert (= Config_as1border1_RouteFilterList_103__3_0_1_0__prefix_range_start 24))
(assert (= Config_as1border1_RouteFilterList_103__3_0_1_0__prefix_range_end 24))
(assert (= Config_as1border1_RouteFilterList_103__3_0_1_0__action true))
(assert (= Config_as1border1_RouteFilterList_103__3_0_2_0__ip #x03000200))
(assert (= Config_as1border1_RouteFilterList_103__3_0_2_0__mask #xffffff00))
(assert (= Config_as1border1_RouteFilterList_103__3_0_2_0__length 24))
(assert (= Config_as1border1_RouteFilterList_103__3_0_2_0__prefix_range_start 24))
(assert (= Config_as1border1_RouteFilterList_103__3_0_2_0__prefix_range_end 24))
(assert (= Config_as1border1_RouteFilterList_103__3_0_2_0__action true))
(assert (= Config_as1border1_RouteFilterList_default_list__0_0_0_0__ip #x00000000))
(assert (= Config_as1border1_RouteFilterList_default_list__0_0_0_0__mask #x00000000))
(assert (= Config_as1border1_RouteFilterList_default_list__0_0_0_0__length 0))
(assert (= Config_as1border1_RouteFilterList_default_list__0_0_0_0__prefix_range_start
   0))
(assert (= Config_as1border1_RouteFilterList_default_list__0_0_0_0__prefix_range_end 0))
(assert (= Config_as1border1_RouteFilterList_default_list__0_0_0_0__action true))
(assert (= Config_as1border1_RouteFilterList_inbound_route_filter__1_0_0_0__ip
   #x01000000))
(assert (= Config_as1border1_RouteFilterList_inbound_route_filter__1_0_0_0__mask
   #xff000000))
(assert (= Config_as1border1_RouteFilterList_inbound_route_filter__1_0_0_0__length 8))
(assert (= Config_as1border1_RouteFilterList_inbound_route_filter__1_0_0_0__prefix_range_start
   8))
(assert (= Config_as1border1_RouteFilterList_inbound_route_filter__1_0_0_0__prefix_range_end
   32))
(assert (= Config_as1border1_RouteFilterList_inbound_route_filter__1_0_0_0__action
   false))
(assert (= Config_as1border1_RouteFilterList_inbound_route_filter__0_0_0_0__ip
   #x00000000))
(assert (= Config_as1border1_RouteFilterList_inbound_route_filter__0_0_0_0__mask
   #x00000000))
(assert (= Config_as1border1_RouteFilterList_inbound_route_filter__0_0_0_0__length 0))
(assert (= Config_as1border1_RouteFilterList_inbound_route_filter__0_0_0_0__prefix_range_start
   0))
(assert (= Config_as1border1_RouteFilterList_inbound_route_filter__0_0_0_0__prefix_range_end
   32))
(assert (= Config_as1border1_RouteFilterList_inbound_route_filter__0_0_0_0__action true))
(assert (= Config_as1border1_RoutingPolicy_BGP_COMMON_EXPORT_POLICY_default__1_0_1_0__prefix_range_start
   24))
(assert (= Config_as1border1_RoutingPolicy_BGP_COMMON_EXPORT_POLICY_default__1_0_1_0__prefix_range_end
   24))
(assert (= Config_as1border1_RoutingPolicy_BGP_COMMON_EXPORT_POLICY_default__1_0_2_0__prefix_range_start
   24))
(assert (= Config_as1border1_RoutingPolicy_BGP_COMMON_EXPORT_POLICY_default__1_0_2_0__prefix_range_end
   24))
(assert (= Config_as1border1_RoutingPolicy_OSPF_EXPORT_POLICY_default__0_0_0_0__prefix_range_start
   0))
(assert (= Config_as1border1_RoutingPolicy_OSPF_EXPORT_POLICY_default__0_0_0_0__prefix_range_end
   0))
(assert (= Config_as2border1_RouteFilterList_101__1_0_1_0__ip #x01000100))
(assert (= Config_as2border1_RouteFilterList_101__1_0_1_0__mask #xffffff00))
(assert (= Config_as2border1_RouteFilterList_101__1_0_1_0__length 24))
(assert (= Config_as2border1_RouteFilterList_101__1_0_1_0__prefix_range_start 24))
(assert (= Config_as2border1_RouteFilterList_101__1_0_1_0__prefix_range_end 24))
(assert (= Config_as2border1_RouteFilterList_101__1_0_1_0__action true))
(assert (= Config_as2border1_RouteFilterList_101__1_0_2_0__ip #x01000200))
(assert (= Config_as2border1_RouteFilterList_101__1_0_2_0__mask #xffffff00))
(assert (= Config_as2border1_RouteFilterList_101__1_0_2_0__length 24))
(assert (= Config_as2border1_RouteFilterList_101__1_0_2_0__prefix_range_start 24))
(assert (= Config_as2border1_RouteFilterList_101__1_0_2_0__prefix_range_end 24))
(assert (= Config_as2border1_RouteFilterList_101__1_0_2_0__action true))
(assert (= Config_as2border1_RouteFilterList_103__3_0_1_0__ip #x03000100))
(assert (= Config_as2border1_RouteFilterList_103__3_0_1_0__mask #xffffff00))
(assert (= Config_as2border1_RouteFilterList_103__3_0_1_0__length 24))
(assert (= Config_as2border1_RouteFilterList_103__3_0_1_0__prefix_range_start 24))
(assert (= Config_as2border1_RouteFilterList_103__3_0_1_0__prefix_range_end 24))
(assert (= Config_as2border1_RouteFilterList_103__3_0_1_0__action true))
(assert (= Config_as2border1_RouteFilterList_103__3_0_2_0__ip #x03000200))
(assert (= Config_as2border1_RouteFilterList_103__3_0_2_0__mask #xffffff00))
(assert (= Config_as2border1_RouteFilterList_103__3_0_2_0__length 24))
(assert (= Config_as2border1_RouteFilterList_103__3_0_2_0__prefix_range_start 24))
(assert (= Config_as2border1_RouteFilterList_103__3_0_2_0__prefix_range_end 24))
(assert (= Config_as2border1_RouteFilterList_103__3_0_2_0__action true))
(assert (= Config_as2border1_RouteFilterList_inbound_route_filter__2_0_0_0__ip
   #x02000000))
(assert (= Config_as2border1_RouteFilterList_inbound_route_filter__2_0_0_0__mask
   #xff000000))
(assert (= Config_as2border1_RouteFilterList_inbound_route_filter__2_0_0_0__length 8))
(assert (= Config_as2border1_RouteFilterList_inbound_route_filter__2_0_0_0__prefix_range_start
   8))
(assert (= Config_as2border1_RouteFilterList_inbound_route_filter__2_0_0_0__prefix_range_end
   32))
(assert (= Config_as2border1_RouteFilterList_inbound_route_filter__2_0_0_0__action
   false))
(assert (= Config_as2border1_RouteFilterList_inbound_route_filter__0_0_0_0__ip
   #x00000000))
(assert (= Config_as2border1_RouteFilterList_inbound_route_filter__0_0_0_0__mask
   #x00000000))
(assert (= Config_as2border1_RouteFilterList_inbound_route_filter__0_0_0_0__length 0))
(assert (= Config_as2border1_RouteFilterList_inbound_route_filter__0_0_0_0__prefix_range_start
   0))
(assert (= Config_as2border1_RouteFilterList_inbound_route_filter__0_0_0_0__prefix_range_end
   32))
(assert (= Config_as2border1_RouteFilterList_inbound_route_filter__0_0_0_0__action true))
(assert (= Config_as2border1_RouteFilterList_outbound_routes__2_128_0_0__ip #x02800000))
(assert (= Config_as2border1_RouteFilterList_outbound_routes__2_128_0_0__mask
   #xff800000))
(assert (= Config_as2border1_RouteFilterList_outbound_routes__2_128_0_0__length 9))
(assert (= Config_as2border1_RouteFilterList_outbound_routes__2_128_0_0__prefix_range_start
   16))
(assert (= Config_as2border1_RouteFilterList_outbound_routes__2_128_0_0__prefix_range_end
   32))
(assert (= Config_as2border1_RouteFilterList_outbound_routes__2_128_0_0__action true))
(assert (= Config_as2border1_RouteFilterList_MATCH_SUPPRESSED_SUMMARY_ONLY_default__2_128_0_0__ip
   #x02800000))
(assert (= Config_as2border1_RouteFilterList_MATCH_SUPPRESSED_SUMMARY_ONLY_default__2_128_0_0__mask
   #xffff0000))
(assert (= Config_as2border1_RouteFilterList_MATCH_SUPPRESSED_SUMMARY_ONLY_default__2_128_0_0__length
   16))
(assert (= Config_as2border1_RouteFilterList_MATCH_SUPPRESSED_SUMMARY_ONLY_default__2_128_0_0__prefix_range_start
   17))
(assert (= Config_as2border1_RouteFilterList_MATCH_SUPPRESSED_SUMMARY_ONLY_default__2_128_0_0__prefix_range_end
   32))
(assert (= Config_as2border1_RouteFilterList_MATCH_SUPPRESSED_SUMMARY_ONLY_default__2_128_0_0__action
   true))
(assert (= Config_as2border1_RoutingPolicy_AGGREGATE_ROUTE_GEN_default_2_128_0_0_16__2_128_0_0__ip
   #x02800000))
(assert (= Config_as2border1_RoutingPolicy_AGGREGATE_ROUTE_GEN_default_2_128_0_0_16__2_128_0_0__mask
   #xffff0000))
(assert (= Config_as2border1_RoutingPolicy_AGGREGATE_ROUTE_GEN_default_2_128_0_0_16__2_128_0_0__length
   16))
(assert (= Config_as2border1_RoutingPolicy_AGGREGATE_ROUTE_GEN_default_2_128_0_0_16__2_128_0_0__prefix_range_start
   17))
(assert (= Config_as2border1_RoutingPolicy_AGGREGATE_ROUTE_GEN_default_2_128_0_0_16__2_128_0_0__prefix_range_end
   32))
(assert (= Config_as2border1_RoutingPolicy_BGP_COMMON_EXPORT_POLICY_default__2_128_0_0__prefix_range_start
   16))
(assert (= Config_as2border1_RoutingPolicy_BGP_COMMON_EXPORT_POLICY_default__2_128_0_0__prefix_range_end
   16))
(assert (= Config_as2border1_RoutingPolicy_OSPF_EXPORT_POLICY_default__0_0_0_0__prefix_range_start
   0))
(assert (= Config_as2border1_RoutingPolicy_OSPF_EXPORT_POLICY_default__0_0_0_0__prefix_range_end
   0))

